; benchmark generated from python API
(set-info :status unknown)
(declare-datatypes ((IntState 0)) (((Mk1 (val1 Int)) (Mk2 (val2 Int)))))
 (declare-fun c_main_~j~6 () Int)
(declare-fun c_main_~k~6 () Int)
(declare-fun c_main_~i~6 () Int)
(assert
 (let (($x104 (exists ((v_nnf_50_st IntState) (val!113 Int) )(let ((?x56 (val2 v_nnf_50_st)))
 (let (($x29 (<= ?x56 3)))
 (let (($x48 (and (<= (+ ?x56 4) c_main_~k~6) (<= c_main_~j~6 (+ (* 2 ?x56) 2)) $x29)))
 (let (($x52 (not (= v_nnf_50_st (Mk1 val!113)))))
 (and $x52 $x48))))))
 ))
 (let (($x49 (<= c_main_~j~6 (+ (* 2 c_main_~i~6) 1))))
 (let (($x47 (<= c_main_~j~6 (+ (* 2 c_main_~i~6) 2))))
 (let (($x177 (<= c_main_~i~6 3)))
 (let (($x11 (exists ((v_nnf_50 Int) )(let (($x23 (<= v_nnf_50 3)))
 (and (<= (+ v_nnf_50 4) c_main_~k~6) (<= c_main_~j~6 (+ (* 2 v_nnf_50) 2)) $x23)))
 ))
 (and (and $x49 $x177 $x11) (not (and $x177 $x47 $x49 $x104)))))))))
(check-sat)
